SCIP version 5.0.0 [precision: 8 byte] [memory: block] [mode: optimized] [LP solver: NONE] [GitHash: 3bbd232]
Copyright (C) 2002-2017 Konrad-Zuse-Zentrum fuer Informationstechnik Berlin (ZIB)

External codes: 
  Readline EditLine w  GNU library for command line editing (gnu.org/s/readline)
  CppAD 20160000.1     Algorithmic Differentiation of C++ algorithms developed by B. Bell (www.coin-or.org/CppAD)
  ZLIB 1.2.5           General purpose compression library by J. Gailly and M. Adler (zlib.net)
  GMP 6.1.2            GNU Multiple Precision Arithmetic Library developed by T. Granlund (gmplib.org)

user parameter file <scip.set> not found - using default parameters

read problem <../../Split_data/output/statG/9/0_sample_statG.logreg>
============

File name	:	../../Split_data/output/statG/9/0_sample_statG.logreg
Problem name 	:	0_sample_statG
Number of data	:	800
Number of var	:	61
The given data has linear dependence
13 sets of column vector are linearly dependent:

[dim=1] time: 0.039628
[dim=2] time: 0.080718
[dim=3] time: 0.120983
[dim=4] time: 0.167341
[dim=5] time: 0.207436
[dim=6] time: 0.249721
[dim=7] time: 0.292971
[dim=8] time: 0.335649
[dim=9] time: 0.378742
[dim=10] time: 0.420847
[dim=11] time: 0.474921
[dim=12] time: 0.515682
[dim=13] time: 0.562728
[dim=14] time: 0.603254
[dim=15] time: 0.643165
[dim=16] time: 0.683196
[dim=17] time: 0.724152
[dim=18] time: 0.803319
[dim=19] time: 0.853202
[dim=20] time: 0.939407
[dim=21] time: 0.988406
[dim=22] time: 1.07259
[dim=23] time: 1.13138
[dim=24] time: 1.17335
[dim=25] time: 1.26295
[dim=26] Time of forward = 1.29723sec.
AIC: 739.591
k: 25

[dim=48] time: 0.185977
[dim=47] time: 0.256313
[dim=46] time: 0.427872
[dim=45] time: 0.50623
[dim=44] time: 0.607837
[dim=43] time: 0.681877
[dim=42] time: 0.821147
[dim=41] time: 0.913632
[dim=40] time: 1.04763
[dim=39] time: 1.12129
[dim=38] time: 1.22645
[dim=37] time: 1.29515
[dim=36] time: 1.39471
[dim=35] time: 1.45492
[dim=34] time: 1.55633
[dim=33] time: 1.61067
[dim=32] time: 1.69599
[dim=31] time: 1.73746
[dim=30] time: 1.81419
[dim=29] time: 1.87065
[dim=28] time: 1.93997
[dim=27] time: 1.99423
[dim=26] Time of backward = 2.04575sec.
AIC: 745.135
k: 27
